0	161	134	0	200
1	203	323	0	200
2	223	428	0	200
3	328	375	0	200
4	374	144	0	200
5	173	385	0	200
6	253	433	0	200
7	244	28	0	200
8	370	146	0	200
9	483	172	0	200
10	495	273	0	200
11	279	229	0	200
12	55	379	0	200
13	185	277	0	200
14	72	463	0	200
15	198	236	0	200
16	262	169	0	200
17	175	189	0	200
18	0	352	0	200
19	322	209	0	200
20	223	169	0	200
21	36	415	0	200
22	99	18	0	200
23	353	335	0	200
24	28	60	0	200
